WARNING: for repeatability, setting FPU to use double precision
Reading from standard input... Use '--help' for help.
============================[ Problem Statistics ]=============================
|                                                                             |
|  Number of variables:          4096                                         |
|  Number of clauses:           31723                                         |
|  Parse time:                   0.01 s                                       |
|  Eliminated clauses:           0.00 Mb                                      |
|  Simplification time:          0.01 s                                       |
|                                                                             |
LBD Based Clause Deletion : 1
Rapid Deletion : 1
Almost Conflict : 1
Anti Exploration : 1
============================[ Search Statistics ]==============================
| Conflicts |          ORIGINAL         |          LEARNT          | Progress |
|           |    Vars  Clauses Literals |    Limit  Clauses Lit/Cl |          |
===============================================================================
|       100 |     665     5017    13853 |     2000      100     50 | 80.103 % |
|       250 |     665     5017    13853 |     2000      250     40 | 80.103 % |
|       475 |     665     5017    13853 |     2000      475     32 | 80.103 % |
===============================================================================
restarts              : 6
conflicts             : 637            (29874 /sec)
decisions             : 1386           (0.00 % random) (65000 /sec)
propagations          : 35911          (1684144 /sec)
conflict literals     : 24399          (9.61 % deleted)
actual reward         : 0.249281
Memory used           : 9.00 MB
CPU time              : 0.021323 s

SATISFIABLE
